c This is a CNF SAT formula in the DIMACS CNF format,
c produced with the bc2cnf translator by Tommi Junttila;
c see http://users.ics.aalto.fi/tjunttil/circuits/index.html
c phi_Gamma <-> 1
c phi_T_transitions <-> 1
c phi_T_transitions_consistency <-> 1
c phi_T <-> 1
c phi_sim_leaves <-> 1
c phi_sim_transition <-> 1
c phi_sim <-> 1
c FORMULA <-> 1
c pi_0_9 <-> 2
c pi_0_8 <-> 13
c pi_0_7 <-> 26
c pi_0_6 <-> 34
c pi_0_5 <-> 37
c pi_0_4 <-> 43
c pi_0_3 <-> 48
c pi_0_2 <-> 50
c pi_0_1 <-> 51
c pi_0_0 <-> 55
c alp_approved_1_0 <-> 59
c alp_approved_1_1 <-> 59
c alp_approved_1_2 <-> 59
c alp_approved_1_3 <-> 59
c alp_approved_0_4 <-> 59
c alp_approved_1_5 <-> 59
c alp_approved_0_6 <-> 59
c alp_approved_1_7 <-> 59
c alp_approved_0_8 <-> 59
c alp_approved_1_9 <-> 59
c alp_approved_1_4 <-> 60
c alp_approved_1_6 <-> 60
c alp_approved_1_8 <-> 60
c approved_P100 <-> 60
c alp_approved_0_0 <-> 61
c alp_approved_0_1 <-> 61
c alp_approved_0_2 <-> 61
c alp_approved_0_3 <-> 61
c alp_approved_0_5 <-> 61
c alp_approved_0_7 <-> 61
c alp_approved_0_9 <-> 61
c approved_P0 <-> 61
c tau_0_3_approved_1 <-> 88
c tau_0_3_approved_0 <-> 89
c tau_0_2_approved_1 <-> 90
c tau_0_2_approved_0 <-> 91
c tau_0_1_approved_1 <-> 92
c tau_0_1_approved_0 <-> 93
c tau_0_0_approved_1 <-> 94
c tau_0_0_approved_0 <-> 95
c phi_T_feature_det <-> 96
c lam_0_credit_score <-> 109
c lam_0_dependents <-> 111
c lam_0_monthly_income <-> 113
c lam_0_age <-> 114
p wcnf 114 324 11  
11 1 0
11 2 -3 0
11 2 -4 0
11 -2 4 3 0
1 2 0
11 -3 8 0
11 -3 109 0
11 3 -109 -8 0
11 4 -5 0
11 4 -6 0
11 -4 6 5 0
11 -5 8 0
11 -5 111 0
11 5 -111 -8 0
11 6 -7 0
11 6 -10 0
11 -6 10 7 0
11 -7 8 0
11 -7 113 0
11 7 -113 -8 0
11 -8 -94 0
11 -8 9 0
11 8 -9 94 0
11 9 95 0
11 9 -61 0
11 -9 61 -95 0
11 -10 11 0
11 -10 114 0
11 10 -114 -11 0
11 -11 -90 0
11 -11 12 0
11 11 -12 90 0
11 12 91 0
11 12 -61 0
11 -12 61 -91 0
11 13 -14 0
11 13 -15 0
11 -13 15 14 0
1 13 0
11 -14 17 0
11 -14 109 0
11 14 -109 -17 0
11 15 -16 0
11 15 -19 0
11 -15 19 16 0
11 -16 17 0
11 -16 111 0
11 16 -111 -17 0
11 -17 -95 0
11 -17 18 0
11 17 -18 95 0
11 18 94 0
11 18 -60 0
11 -18 60 -94 0
11 19 -20 0
11 19 -23 0
11 -19 23 20 0
11 -20 21 0
11 -20 113 0
11 20 -113 -21 0
11 -21 22 0
11 -21 -93 0
11 21 93 -22 0
11 22 92 0
11 22 -60 0
11 -22 60 -92 0
11 -23 24 0
11 -23 114 0
11 23 -114 -24 0
11 -24 25 0
11 -24 -89 0
11 24 89 -25 0
11 25 88 0
11 25 -60 0
11 -25 60 -88 0
11 26 -27 0
11 26 -28 0
11 -26 28 27 0
1 26 0
11 -27 11 0
11 -27 109 0
11 27 -109 -11 0
11 28 -29 0
11 28 -32 0
11 -28 32 29 0
11 -29 30 0
11 -29 111 0
11 29 -111 -30 0
11 -30 -92 0
11 -30 31 0
11 30 -31 92 0
11 31 93 0
11 31 -61 0
11 -31 61 -93 0
11 32 -7 0
11 32 -33 0
11 -32 33 7 0
11 -33 8 0
11 -33 114 0
11 33 -114 -8 0
11 34 -14 0
11 34 -35 0
11 -34 35 14 0
1 34 0
11 35 -19 0
11 35 -36 0
11 -35 36 19 0
11 -36 21 0
11 -36 111 0
11 36 -111 -21 0
11 37 -3 0
11 37 -38 0
11 -37 38 3 0
1 37 0
11 38 -5 0
11 38 -39 0
11 -38 39 5 0
11 39 -7 0
11 39 -40 0
11 -39 40 7 0
11 -40 41 0
11 -40 114 0
11 40 -114 -41 0
11 -41 -88 0
11 -41 42 0
11 41 -42 88 0
11 42 89 0
11 42 -61 0
11 -42 61 -89 0
11 43 -44 0
11 43 -45 0
11 -43 45 44 0
1 43 0
11 -44 21 0
11 -44 109 0
11 44 -109 -21 0
11 45 -16 0
11 45 -46 0
11 -45 46 16 0
11 46 -20 0
11 46 -47 0
11 -46 47 20 0
11 -47 21 0
11 -47 114 0
11 47 -114 -21 0
11 48 -38 0
11 48 -49 0
11 -48 49 38 0
1 48 0
11 -49 30 0
11 -49 109 0
11 49 -109 -30 0
11 50 -27 0
11 50 -38 0
11 -50 38 27 0
1 50 0
11 51 -49 0
11 51 -52 0
11 -51 52 49 0
1 51 0
11 52 -29 0
11 52 -53 0
11 -52 53 29 0
11 53 -33 0
11 53 -54 0
11 -53 54 33 0
11 -54 30 0
11 -54 113 0
11 54 -113 -30 0
11 55 -27 0
11 55 -56 0
11 -55 56 27 0
1 55 0
11 56 -5 0
11 56 -57 0
11 -56 57 5 0
11 57 -7 0
11 57 -58 0
11 -57 58 7 0
11 -58 30 0
11 -58 114 0
11 58 -114 -30 0
11 -59 0
11 62 109 0
11 62 -63 0
11 -62 63 -109 0
11 62 0
11 -63 -88 0
11 -63 -89 0
11 63 89 88 0
11 64 111 0
11 64 -65 0
11 -64 65 -111 0
11 64 0
11 -65 -88 0
11 -65 66 0
11 65 -66 88 0
11 -66 -89 0
11 -66 67 0
11 66 -67 89 0
11 -67 -90 0
11 -67 -91 0
11 67 91 90 0
11 68 -65 0
11 68 113 0
11 -68 -113 65 0
11 68 0
11 69 109 0
11 69 -70 0
11 -69 70 -109 0
11 69 0
11 -70 71 0
11 -70 74 0
11 70 -74 -71 0
11 71 -72 0
11 71 -73 0
11 -71 73 72 0
11 -72 -91 0
11 -72 90 0
11 72 -90 91 0
11 -73 -90 0
11 -73 91 0
11 73 -91 90 0
11 -74 75 0
11 -74 78 0
11 74 -78 -75 0
11 75 -76 0
11 75 -77 0
11 -75 77 76 0
11 -76 -93 0
11 -76 92 0
11 76 -92 93 0
11 -77 -92 0
11 -77 93 0
11 77 -93 92 0
11 78 -79 0
11 78 -80 0
11 -78 80 79 0
11 -79 -95 0
11 -79 94 0
11 79 -94 95 0
11 -80 -94 0
11 -80 95 0
11 80 -95 94 0
11 81 111 0
11 81 -74 0
11 -81 74 -111 0
11 81 0
11 82 113 0
11 82 -74 0
11 -82 74 -113 0
11 82 0
11 83 114 0
11 83 -84 0
11 -83 84 -114 0
11 83 0
11 -84 70 0
11 -84 85 0
11 84 -85 -70 0
11 85 -86 0
11 85 -87 0
11 -85 87 86 0
11 -86 -89 0
11 -86 88 0
11 86 -88 89 0
11 -87 -88 0
11 -87 89 0
11 87 -89 88 0
11 96 -97 0
11 96 -100 0
11 -96 100 97 0
11 96 0
11 -97 -111 0
11 -97 98 0
11 97 -98 111 0
11 -98 -113 0
11 -98 99 0
11 98 -99 113 0
11 -99 -114 0
11 -99 109 0
11 99 -109 114 0
11 100 -101 0
11 100 -104 0
11 -100 104 101 0
11 -101 -109 0
11 -101 102 0
11 101 -102 109 0
11 -102 -113 0
11 -102 103 0
11 102 -103 113 0
11 -103 -114 0
11 -103 111 0
11 103 -111 114 0
11 104 -105 0
11 104 -108 0
11 -104 108 105 0
11 -105 -109 0
11 -105 106 0
11 105 -106 109 0
11 -106 -111 0
11 -106 107 0
11 106 -107 111 0
11 -107 -114 0
11 -107 113 0
11 107 -113 114 0
11 -108 -109 0
11 -108 110 0
11 108 -110 109 0
11 -110 -111 0
11 -110 112 0
11 110 -112 111 0
11 -112 -113 0
11 -112 114 0
11 112 -114 113 0
